proyfinal/src/viki/013/experimentInOfficeAgust.take6.output/f8d70f5e-c929-4a26-b972-3fa147cc81c7.als.out
Reading from standard input... Use '--help' for help.
============================[ Problem Statistics ]=============================
|                                                                             |
|  Number of variables:         87638                                         |
|  Number of clauses:          161767                                         |
|  Parse time:                   0.04 s                                       |
|                                                                             |
============================[ Search Statistics ]==============================
| Conflicts |          ORIGINAL         |          LEARNT          | Progress |
|           |    Vars  Clauses Literals |    Limit  Clauses Lit/Cl |          |
===============================================================================
|       100 |   62286   104903   262053 |    38464      100     10 | 28.928 % |
|       250 |   62286   104903   262053 |    42310      250     28 | 28.928 % |
|       475 |   62286   104903   262053 |    46541      475     70 | 28.928 % |
|       812 |   62286   104903   262053 |    51196      812     83 | 28.928 % |
|      1318 |   62286   104903   262053 |    56315     1318    101 | 28.928 % |
|      2077 |   62286   104903   262053 |    61947     2077    107 | 28.928 % |
|      3216 |   62261   104763   261699 |    68142     3117    105 | 28.957 % |
|      4924 |   49781    68301   172233 |    74956     4217     88 | 43.197 % |
|      7486 |   49609    67915   171321 |    82451     6761     71 | 43.393 % |
|     11330 |   49249    66060   166837 |    90697     9950     60 | 43.804 % |
===============================================================================
restarts              : 61
conflicts             : 14230          (7564 /sec)
decisions             : 47079          (0.00 % random) (25026 /sec)
propagations          : 20557633       (10927721 /sec)
conflict literals     : 813926         (44.48 % deleted)
Memory used           : 32.15 MB
CPU time              : 1.88124 s

UNSATISFIABLE
